c This is an instance of the exact track of PACE 2020 Challenge, see https://pacechallenge.org/2020/ 
c TYPE: infrastructure 
c ORIGIN: Open street maps 
c DESCRIPTION: Riga (Latvia): a road network downloaded from open street maps using osmnx Python package 
p tdp 24 28
1 2
1 15
2 5
3 18
3 21
4 5
4 11
4 13
5 6
6 7
6 16
7 8
7 9
9 11
9 10
11 12
14 16
15 18
15 16
16 17
17 18
17 20
17 24
19 24
20 21
20 23
22 23
23 24
